Please solve the following SAT Problem encoded in DIMACS format, only return a single solution assignment without explanations, if there is any: 
p cnf 5 16
-1 2 5 0
-1 -4 3 0
-2 -1 -4 0
2 -4 3 0
-3 -4 -1 0
5 -1 3 0
-4 2 5 0
-1 -4 3 0
-2 5 -1 0
-1 -3 5 0
5 -1 4 0
2 1 5 0
-1 4 3 0
2 3 -5 0
-1 -3 5 0
-5 2 1 0

